100
32
29
15
19
32
5
1
13
25
11
32
28
6
6
9
15
6
13
15
12
20
20
8
8
11
4
24
1
10
11
8
13
25
22
16
14
10
30
8
24
2
31
4
28
2
27
3
25
8
22
32
5
2
4
6
30
19
23
12
6
3
3
3
21
14
16
32
32
11
19
20
21
31
2
13
18
21
7
7
10
8
3
21
30
20
20
21
4
2
11
29
11
2
5
21
1
2
18
14
3
6